CLW02
Position Depot: Random
Horizon for Depot: Large
Position of customers: Cluster
Distribution of the demand: Large
Width of time windows: Wide
Distribution of the service: Small

VEHICLE 
NUMBER 	 CAPACITY 
 5 	 	 1018 
 
CUSTOMER
CUST NO. 	 XCOORD.  	 YCOORD. 	 DEMAND 	 READY TIME 	 DUE DATE 	 SERVICE TIME 
 0 	 	 117 	 	 208 	 	 0 	 	 0 	 	 2963 	 	 0 
  1 	 	 548 	 	 879 	 	 3 	 	 558 	 	 877 	 	 92 
  2 	 	 255 	 	 536 	 	 97 	 	 866 	 	 1309 	 	 66 
  3 	 	 953 	 	 898 	 	 98 	 	 1151 	 	 1416 	 	 95 
  4 	 	 866 	 	 110 	 	 30 	 	 909 	 	 1258 	 	 99 
  5 	 	 77 	 	 575 	 	 28 	 	 1600 	 	 1920 	 	 86 
  6 	 	 572 	 	 817 	 	 18 	 	 2337 	 	 2723 	 	 58 
  7 	 	 336 	 	 635 	 	 42 	 	 1938 	 	 2255 	 	 95 
  8 	 	 299 	 	 591 	 	 65 	 	 1394 	 	 1686 	 	 56 
  9 	 	 649 	 	 923 	 	 39 	 	 1470 	 	 1683 	 	 81 
  10 	 	 269 	 	 549 	 	 96 	 	 1034 	 	 1279 	 	 84 
  11 	 	 573 	 	 854 	 	 100 	 	 822 	 	 1232 	 	 97 
  12 	 	 956 	 	 950 	 	 19 	 	 851 	 	 1232 	 	 67 
  13 	 	 577 	 	 804 	 	 11 	 	 716 	 	 1072 	 	 100 
  14 	 	 454 	 	 900 	 	 31 	 	 442 	 	 846 	 	 68 
  15 	 	 862 	 	 203 	 	 14 	 	 2480 	 	 2963 	 	 98 
  16 	 	 606 	 	 927 	 	 4 	 	 800 	 	 1055 	 	 87 
  17 	 	 557 	 	 868 	 	 67 	 	 682 	 	 1046 	 	 57 
  18 	 	 265 	 	 561 	 	 5 	 	 2032 	 	 2475 	 	 73 
  19 	 	 595 	 	 833 	 	 63 	 	 476 	 	 865 	 	 85 
  20 	 	 861 	 	 979 	 	 4 	 	 1085 	 	 1519 	 	 87 
  21 	 	 323 	 	 892 	 	 18 	 	 490 	 	 837 	 	 68 
  22 	 	 828 	 	 93 	 	 60 	 	 312 	 	 795 	 	 64 
  23 	 	 547 	 	 833 	 	 47 	 	 584 	 	 834 	 	 57 
  24 	 	 223 	 	 566 	 	 98 	 	 173 	 	 410 	 	 50 
  25 	 	 878 	 	 842 	 	 76 	 	 1061 	 	 1469 	 	 76 
  26 	 	 771 	 	 142 	 	 69 	 	 2649 	 	 2946 	 	 68 
  27 	 	 243 	 	 455 	 	 53 	 	 1291 	 	 1746 	 	 60 
  28 	 	 707 	 	 848 	 	 3 	 	 620 	 	 957 	 	 92 
  29 	 	 889 	 	 905 	 	 80 	 	 2596 	 	 2841 	 	 55 
  30 	 	 837 	 	 805 	 	 85 	 	 2331 	 	 2681 	 	 90 
  31 	 	 865 	 	 801 	 	 76 	 	 1904 	 	 2396 	 	 91 
  32 	 	 268 	 	 624 	 	 41 	 	 1984 	 	 2243 	 	 62 
  33 	 	 318 	 	 577 	 	 41 	 	 2596 	 	 2963 	 	 67 
  34 	 	 852 	 	 119 	 	 32 	 	 629 	 	 843 	 	 93 
  35 	 	 234 	 	 508 	 	 69 	 	 1504 	 	 1925 	 	 71 
  36 	 	 894 	 	 162 	 	 93 	 	 462 	 	 856 	 	 79 
  37 	 	 854 	 	 175 	 	 82 	 	 1150 	 	 1556 	 	 52 
  38 	 	 295 	 	 473 	 	 99 	 	 995 	 	 1208 	 	 72 
  39 	 	 585 	 	 849 	 	 90 	 	 583 	 	 873 	 	 87 
  40 	 	 256 	 	 525 	 	 9 	 	 -13 	 	 452 	 	 58 
  41 	 	 524 	 	 887 	 	 38 	 	 1660 	 	 2107 	 	 85 
  42 	 	 898 	 	 158 	 	 42 	 	 482 	 	 860 	 	 89 
  43 	 	 546 	 	 874 	 	 100 	 	 490 	 	 871 	 	 59 
  44 	 	 923 	 	 742 	 	 26 	 	 2601 	 	 2902 	 	 62 
  45 	 	 235 	 	 600 	 	 5 	 	 948 	 	 1196 	 	 77 
  46 	 	 497 	 	 893 	 	 93 	 	 923 	 	 1422 	 	 80 
  47 	 	 309 	 	 458 	 	 58 	 	 2249 	 	 2487 	 	 58 
  48 	 	 254 	 	 570 	 	 31 	 	 964 	 	 1441 	 	 64 
  49 	 	 880 	 	 747 	 	 71 	 	 1810 	 	 2148 	 	 57 
  50 	 	 482 	 	 931 	 	 15 	 	 645 	 	 1077 	 	 80 
  51 	 	 423 	 	 665 	 	 37 	 	 1219 	 	 1649 	 	 86 
  52 	 	 700 	 	 770 	 	 56 	 	 2316 	 	 2761 	 	 77 
  53 	 	 885 	 	 139 	 	 86 	 	 1333 	 	 1687 	 	 90 
  54 	 	 163 	 	 403 	 	 79 	 	 2477 	 	 2963 	 	 89 
  55 	 	 489 	 	 808 	 	 48 	 	 2242 	 	 2570 	 	 77 
  56 	 	 815 	 	 78 	 	 7 	 	 2169 	 	 2607 	 	 90 
  57 	 	 816 	 	 135 	 	 71 	 	 1408 	 	 1725 	 	 74 
  58 	 	 884 	 	 49 	 	 83 	 	 424 	 	 861 	 	 53 
  59 	 	 427 	 	 899 	 	 54 	 	 431 	 	 833 	 	 60 
  60 	 	 929 	 	 41 	 	 18 	 	 738 	 	 988 	 	 93 
  61 	 	 535 	 	 824 	 	 15 	 	 1104 	 	 1438 	 	 73 
  62 	 	 249 	 	 528 	 	 89 	 	 1934 	 	 2253 	 	 53 
  63 	 	 992 	 	 940 	 	 36 	 	 2059 	 	 2511 	 	 61 
  64 	 	 636 	 	 782 	 	 66 	 	 622 	 	 851 	 	 59 
  65 	 	 239 	 	 431 	 	 16 	 	 2558 	 	 2797 	 	 63 
  66 	 	 254 	 	 523 	 	 47 	 	 2564 	 	 2963 	 	 81 
  67 	 	 435 	 	 596 	 	 39 	 	 2070 	 	 2394 	 	 100 
  68 	 	 919 	 	 850 	 	 34 	 	 672 	 	 1130 	 	 100 
  69 	 	 275 	 	 590 	 	 62 	 	 1884 	 	 2259 	 	 65 
  70 	 	 833 	 	 90 	 	 36 	 	 1626 	 	 1840 	 	 67 
  71 	 	 848 	 	 111 	 	 56 	 	 1930 	 	 2336 	 	 91 
  72 	 	 876 	 	 20 	 	 89 	 	 556 	 	 860 	 	 70 
  73 	 	 869 	 	 79 	 	 85 	 	 2173 	 	 2418 	 	 65 
  74 	 	 532 	 	 831 	 	 48 	 	 1360 	 	 1646 	 	 51 
  75 	 	 602 	 	 920 	 	 25 	 	 612 	 	 947 	 	 89 
  76 	 	 549 	 	 927 	 	 50 	 	 1132 	 	 1479 	 	 100 
  77 	 	 273 	 	 418 	 	 32 	 	 915 	 	 1193 	 	 93 
  78 	 	 267 	 	 619 	 	 86 	 	 1839 	 	 2157 	 	 75 
  79 	 	 141 	 	 786 	 	 60 	 	 975 	 	 1328 	 	 72 
  80 	 	 548 	 	 872 	 	 1 	 	 1620 	 	 2105 	 	 85 
  81 	 	 895 	 	 814 	 	 100 	 	 1042 	 	 1410 	 	 79 
  82 	 	 572 	 	 817 	 	 89 	 	 2070 	 	 2283 	 	 50 
  83 	 	 915 	 	 5 	 	 69 	 	 2142 	 	 2465 	 	 85 
  84 	 	 896 	 	 77 	 	 27 	 	 703 	 	 992 	 	 93 
  85 	 	 401 	 	 576 	 	 43 	 	 2228 	 	 2623 	 	 97 
  86 	 	 276 	 	 488 	 	 76 	 	 2283 	 	 2723 	 	 60 
  87 	 	 918 	 	 831 	 	 76 	 	 676 	 	 1116 	 	 80 
  88 	 	 853 	 	 117 	 	 37 	 	 1307 	 	 1604 	 	 82 
  89 	 	 512 	 	 964 	 	 30 	 	 2250 	 	 2549 	 	 57 
  90 	 	 841 	 	 135 	 	 37 	 	 420 	 	 800 	 	 99 
  91 	 	 829 	 	 75 	 	 14 	 	 477 	 	 928 	 	 51 
  92 	 	 915 	 	 857 	 	 6 	 	 1752 	 	 2246 	 	 68 
  93 	 	 237 	 	 576 	 	 24 	 	 112 	 	 449 	 	 93 
  94 	 	 741 	 	 82 	 	 21 	 	 806 	 	 1142 	 	 72 
  95 	 	 927 	 	 917 	 	 91 	 	 737 	 	 1184 	 	 83 
  96 	 	 294 	 	 560 	 	 93 	 	 798 	 	 1268 	 	 92 
  97 	 	 783 	 	 87 	 	 19 	 	 2496 	 	 2930 	 	 54 
  98 	 	 522 	 	 978 	 	 9 	 	 2316 	 	 2782 	 	 67 
  99 	 	 509 	 	 937 	 	 88 	 	 2120 	 	 2569 	 	 61 
  100 	 	 502 	 	 849 	 	 93 	 	 2035 	 	 2331 	 	 96 
 